(set-logic QF_BV)
(declare-fun _substvar_138_ () (_ BitVec 1))
(declare-fun _substvar_141_ () (_ BitVec 15))
(declare-fun _substvar_137_ () (_ BitVec 15))
(declare-fun _substvar_128_ () (_ BitVec 15))
(declare-fun _substvar_1659_ () Bool)
(declare-fun _substvar_1484_ () Bool)
(declare-fun _substvar_1392_ () Bool)
(declare-fun _substvar_105_ () (_ BitVec 15))
(declare-fun _substvar_1414_ () Bool)
(declare-fun _substvar_1252_ () Bool)
(declare-fun _substvar_91_ () (_ BitVec 15))
(declare-fun _substvar_1428_ () Bool)
(declare-fun _substvar_1446_ () Bool)
(declare-fun _substvar_1455_ () Bool)
(assert (and true true true true true true true true true true true true true true true true true true true true true true true true true true true true true true true true true true true true true true true true true true true true true true true true true true true true true true true true true true true true true true true true true true true true true true true true true true true true true true true true true true true true true true true true true true true true true true true true true true true true true true true true true true true true true true true true true true true true true true true true true true true true true true true true true true true true true true true true true true true true true true true true true true true true true true true true true true true true true true true true true true true true true true true true true true true true true true true true true true true true true true true true true true true true true true true true true true true true true true true true true true true true true true _substvar_1428_ _substvar_1446_ true true _substvar_1392_ _substvar_1484_ true true true true true true _substvar_1659_ (ite _substvar_1252_ (= _substvar_141_ (_ bv0 15)) (= _substvar_141_ (concat (_ bv0 14) _substvar_138_))) (ite _substvar_1455_ (= _substvar_105_ (_ bv0 15)) (= _substvar_105_ (concat ((_ extract 13 0) _substvar_141_) (bvxor ((_ extract 14 14) _substvar_141_) ((_ extract 13 13) _substvar_141_))))) (= _substvar_128_ (concat ((_ extract 13 0) _substvar_105_) (_ bv0 1))) (= _substvar_137_ (concat (_ bv0 14) (bvxor (_ bv0 1) ((_ extract 13 13) _substvar_128_)))) (= _substvar_91_ (concat ((_ extract 13 0) _substvar_137_) (_ bv0 1))) true true _substvar_1414_ (= (= (_ bv0 15) _substvar_91_) false)))
(check-sat)
(exit)
